unsat
(define-fun f ((x0 (BitVec 64)) (x1 (BitVec 64))) (BitVec 64) (bvudiv x0 (bvudiv #b0000000000000000000000000000000000000000000000000000000000101101 x0)))
(define-fun f ((x0 (BitVec 64)) (x1 (BitVec 64))) (BitVec 64) (bvudiv x0 (bvudiv #b0000000000000000000000000000000000000000000000000000000000101101 x0)))
int-arith41.sl running time : 0 m 4.396628495 s
times : 4.396628495
